NAME : pr144
TYPE : OP
DIMENSION : 144
COST_LIMIT : 40976
ROUTE_NODES : 104
ROUTE_SCORE : 5639
ROUTE_COST : 40944
NODE_SEQUENCE_SECTION
1
3
4
5
6
22
23
37
38
39
40
21
18
17
16
15
42
43
44
45
71
72
70
69
68
67
66
65
64
63
62
61
74
75
76
77
78
89
90
99
98
97
94
93
95
96
121
122
123
124
125
126
127
128
129
130
115
131
132
133
134
135
136
137
138
139
140
141
142
143
144
107
106
104
105
108
109
110
86
85
84
83
82
81
80
79
57
56
55
54
53
52
51
50
49
35
36
25
26
27
30
29
28
2
-1
DEPOT_SECTION
1
-1
EOF
